JulietBench/Juliet_Based_Patch_Bench/linux/CWE-189-Numeric-Errors/CVE_2010_2959_5b75c4973ce779520b9d1e392483207d6f842cde/cve2/Resultbcm_rx_setup_Snippet_patch2NEQ.smt2
; benchmark generated from python API
(set-info :status unknown)
(declare-fun R () (_ BitVec 32))
(declare-fun rsi () (_ BitVec 64))
(declare-fun rdi () (_ BitVec 64))
(assert
 (let (($x113 (and (distinct (_ bv0 32) R) true)))
 (let (($x106 (= (_ bv0 32) R)))
 (let ((?x32 ((_ extract 15 0) rsi)))
 (let ((?x27 (bvand ?x32 (_ bv1024 16))))
 (let (($x14 (= (_ bv0 16) ?x27)))
 (let (($x109 (and $x14 $x106)))
 (let (($x74 (and (distinct (_ bv0 16) ?x27) true)))
 (let ((?x6 ((_ extract 31 0) rdi)))
 (let (($x89 (= (_ bv1 32) ?x6)))
 (let (($x108 (and $x89 $x74 $x106)))
 (let (($x10 (= (_ bv4294967274 32) R)))
 (let (($x97 (and (distinct (_ bv1 32) ?x6) true)))
 (let (($x11 (and $x97 $x74 $x10)))
 (let (($x110 (or $x11 $x108 $x109)))
 (let (($x112 (not $x110)))
 (let (($x114 (and $x112 $x113)))
 (let (($x111 (and $x110 $x106)))
 (let (($x115 (or $x111 $x114)))
 (not $x115))))))))))))))))))))
(check-sat)
